NAME : A-n63-k10.778461.tour
COMMENT : Length = 778461
COMMENT : Found by LKH [Keld Helsgaun] Sun Dec 17 18:54:44 2017
TYPE : TOUR
DIMENSION : 72
TOUR_SECTION
1
31
39
5
27
14
71
63
52
59
23
56
34
65
11
60
19
6
20
4
43
72
57
41
26
16
54
15
69
50
46
40
2
42
3
10
13
7
64
18
32
25
8
22
62
24
66
30
55
61
47
70
49
37
53
44
68
17
38
9
36
28
67
21
51
29
58
33
45
48
12
35
-1
EOF
